WARNING: for repeatability, setting FPU to use double precision
============================[ Problem Statistics ]=============================
|                                                                             |
|  Number of variables:            50                                         |
|  Number of clauses:             218                                         |
|  Parse time:                   0.00 s                                       |
|                                                                             |
============================[ Search Statistics ]==============================
| Conflicts |          ORIGINAL         |          LEARNT          | Progress |
|           |    Vars  Clauses Literals |    Limit  Clauses Lit/Cl |          |
===============================================================================
===============================================================================
restarts              : 1
conflicts             : 16             (11653 /sec)
decisions             : 36             (0.00 % random) (26220 /sec)
propagations          : 274            (199563 /sec)
conflict literals     : 65             (9.72 % deleted)
Memory used           : 20.00 MB
CPU time              : 0.001373 s

SATISFIABLE
